results_rootrelaxation/bin012_050_029.srr.sol
solution status: optimal solution found
objective value:                 -1.22124532708767e-15
_var59_                            0.0238558982953552 	(obj:0)
_var61_                             0.172245625160419 	(obj:0)
_var122_                           0.0435068170494174 	(obj:0)
_var180_                            0.125349156739292 	(obj:0)
_var306_                           0.0205643882773924 	(obj:0)
_var429_                             0.41945614591354 	(obj:0)
_var481_                            0.225151364164815 	(obj:0)
_var651_                            0.126277724932436 	(obj:0)
_var680_                            0.540645619120959 	(obj:0)
_var682_                           0.0731530552158364 	(obj:0)
_var686_                           0.0640712053268098 	(obj:0)
_var690_                           0.0651960562274411 	(obj:0)
_var696_                             0.60908788935695 	(obj:0)
_var697_                            0.125266114055345 	(obj:0)
_var702_                           0.0176654436744171 	(obj:0)
_var703_                            0.660166689314676 	(obj:0)
_var704_                            0.325716054415609 	(obj:0)
_var708_                            0.276328305476292 	(obj:0)
_var709_                           0.0413099605924686 	(obj:0)
_var714_                            0.123710951065207 	(obj:0)
_var716_                           0.0969863055064867 	(obj:0)
_var717_                            0.262324289230122 	(obj:0)
_var721_                            0.113564644954777 	(obj:0)
_var722_                             0.61396475970467 	(obj:0)
_var727_                            0.272470595340552 	(obj:0)
_var733_                           0.0610137246908595 	(obj:0)
_var738_                           0.0678156754389997 	(obj:0)
_var739_                            0.162205009738648 	(obj:0)
_var740_                            0.221127568661195 	(obj:0)
_var745_                           0.0403964910691372 	(obj:0)
_var746_                            0.269934018812937 	(obj:0)
_var752_                            0.101213933052501 	(obj:0)
_var754_                            0.419184369857012 	(obj:0)
_var756_                            0.223709441198233 	(obj:0)
_var758_                          0.00956500732285992 	(obj:0)
_var763_                          0.00370672343766065 	(obj:0)
_var765_                             0.15627878183932 	(obj:0)
_var766_                             0.32502151560447 	(obj:0)
_var768_                            0.116410744213434 	(obj:0)
_var769_                           0.0514487173679996 	(obj:0)
_var772_                            0.236664099892795 	(obj:0)
_var775_                             0.51647264875965 	(obj:0)
_var778_                            0.224773897419636 	(obj:0)
_var780_                           0.0501502317645826 	(obj:0)
_var782_                            0.342943636665607 	(obj:0)
_var784_                            0.126277724932437 	(obj:0)
_var787_                             0.06589059503858 	(obj:0)
_var789_                            0.220772749920738 	(obj:0)
_var791_                          0.00613760927661988 	(obj:0)
_var792_                            0.181674744455015 	(obj:0)
_var794_                           0.0635050052090318 	(obj:0)
_var795_                           0.0435068170494174 	(obj:0)
_var796_                            0.136091860307108 	(obj:0)
_var797_                            0.398710573598465 	(obj:0)
_var798_                           0.0256677386722226 	(obj:0)
_var801_                           0.0347797859008603 	(obj:0)
_var802_                           0.0988207938880536 	(obj:0)
_var804_                            0.176276969998937 	(obj:0)
_var805_                            0.149023870996967 	(obj:0)
_var807_                            0.144116803309632 	(obj:0)
_var809_                           0.0471682444776691 	(obj:0)
_var819_                           0.0435068170494174 	(obj:0)
